NAME          COPTPROB
OBJSENSE
  MIN
ROWS
 N  __OBJ___
 L  C559    
 L  C1397   
 L  C2274   
 L  C3735   
 L  C4271   
COLUMNS
    MARKER    'MARKER'                 'INTORG'
    x465      __OBJ___  -1
    x465      C2274     1
    x465      C4271     1
    x600      __OBJ___  -1
    x600      C559      1
    x600      C2274     1
    x1437     __OBJ___  -1
    x1437     C1397     1
    x1437     C3735     1
    x1951     __OBJ___  -1
    x1951     C559      1
    x1951     C1397     1
    x2055     __OBJ___  -1
    x2055     C3735     1
    x2055     C4271     1
    MARKER    'MARKER'                 'INTEND'
RHS
    RHS       __OBJ___  1383
    RHS       C559      1
    RHS       C1397     1
    RHS       C2274     1
    RHS       C3735     1
    RHS       C4271     1
BOUNDS
 UP BOUND     x465      1
 UP BOUND     x600      1
 UP BOUND     x1437     1
 UP BOUND     x1951     1
 UP BOUND     x2055     1
ENDATA
